NAME : ftv38.80.1982.tour
COMMENT : Length = 1982
COMMENT : Found by LKH [Keld Helsgaun] Tue Dec 11 00:01:48 2018
TYPE : TOUR
DIMENSION : 41
TOUR_SECTION
1
19
18
17
16
9
6
8
7
5
39
36
33
34
31
32
26
27
24
25
35
41
2
29
28
23
37
22
21
14
11
13
12
38
10
15
20
30
40
3
4
-1
EOF
